data;

set A := 52 140 412 292 512 504 206 392 190 960 784 120 418 402 224 302 108 90 508 152 600 286 288 954 940 786 538 164 240 144 100 308 912 852 170 706 552 264 986 380 124 542 554 836 604 642 984 386 10 42 736 306;
param T := 13000;

end;
